(declare-rel fail ())
(declare-rel inv2 (Int Int Int Int Int))
(declare-var A Int)
(declare-var B Int)
(declare-var C Int)
(declare-var D Int)
(declare-var E Int)
(declare-var F Int)
(rule (=> (and (= F 0) (= D (* 4999 A)) (= C (* 4998 A)) (= 2 A)) (inv2 F D C A A)))
(rule (let ((a!1 (and (inv2 F D C A A) (= E (ite (= F D) 1 (+ F A))))))
  (=> a!1 (inv2 E D C A A))))
(rule (=> (and (inv2 F D C A A) (= 0 (mod F 4)) (not (<= F C))) fail))
(query fail)

